# Cell file generated by matador (Matthew Evans 2016)

%BLOCK LATTICE_CART
9.6188124 0.0 -0.0 
-4.8094062 8.3301359 0.0 
-0.0 0.0 13.1260453 
%ENDBLOCK LATTICE_CART

%BLOCK POSITIONS_FRAC
O               0.333333        0.013583        0.083333
O               0.833333        0.013583        0.083333
O               0.180250        0.166667        0.083333
O               0.680250        0.166667        0.083333
O               0.486417        0.319750        0.083333
O               0.986417        0.319750        0.083333
O               0.333333        0.513583        0.083333
O               0.833333        0.513583        0.083333
O               0.180250        0.666667        0.083333
O               0.680250        0.666667        0.083333
O               0.486417        0.819750        0.083333
O               0.986417        0.819750        0.083333
O               0.153084       -0.000000        0.250000
O               0.653084       -0.000000        0.250000
O              -0.000000        0.153084        0.250000
O               0.500000        0.153084        0.250000
O               0.346916        0.346916        0.250000
O               0.846916        0.346916        0.250000
O               0.153084        0.500000        0.250000
O               0.653084        0.500000        0.250000
O              -0.000000        0.653084        0.250000
O               0.500000        0.653084        0.250000
O               0.346916        0.846916        0.250000
O               0.846916        0.846916        0.250000
O               0.166667        0.180250        0.416667
O               0.666667        0.180250        0.416667
O               0.013583        0.333333        0.416667
O               0.513583        0.333333        0.416667
O               0.319750        0.486417        0.416667
O               0.819750        0.486417        0.416667
O               0.166667        0.680250        0.416667
O               0.666667        0.680250        0.416667
O               0.013583        0.833333        0.416667
O               0.513583        0.833333        0.416667
O               0.319750        0.986417        0.416667
O               0.819750        0.986417        0.416667
O               0.180250        0.013583        0.583333
O               0.680250        0.013583        0.583333
O               0.486417        0.166667        0.583333
O               0.986417        0.166667        0.583333
O               0.333333        0.319750        0.583333
O               0.833333        0.319750        0.583333
O               0.180250        0.513583        0.583333
O               0.680250        0.513583        0.583333
O               0.486417        0.666667        0.583333
O               0.986417        0.666667        0.583333
O               0.333333        0.819750        0.583333
O               0.833333        0.819750        0.583333
O               0.346916       -0.000000        0.750000
O               0.846916       -0.000000        0.750000
O               0.153084        0.153084        0.750000
O               0.653084        0.153084        0.750000
O              -0.000000        0.346916        0.750000
O               0.500000        0.346916        0.750000
O               0.346916        0.500000        0.750000
O               0.846916        0.500000        0.750000
O               0.153084        0.653084        0.750000
O               0.653084        0.653084        0.750000
O              -0.000000        0.846916        0.750000
O               0.500000        0.846916        0.750000
O               0.013583        0.180250        0.916667
O               0.513583        0.180250        0.916667
O               0.319750        0.333333        0.916667
O               0.819750        0.333333        0.916667
O               0.166667        0.486417        0.916667
O               0.666667        0.486417        0.916667
O               0.013583        0.680250        0.916667
O               0.513583        0.680250        0.916667
O               0.319750        0.833333        0.916667
O               0.819750        0.833333        0.916667
O               0.166667        0.986417        0.916667
O               0.666667        0.986417        0.916667
Al              0.166667        0.333333        0.018842
Al              0.666667        0.333333        0.018842
Al              0.166667        0.833333        0.018842
Al              0.666667        0.833333        0.018842
Al             -0.000000       -0.000000        0.147825
Al              0.500000       -0.000000        0.147825
Al             -0.000000        0.500000        0.147825
Al              0.500000        0.500000        0.147825
Al              0.333333        0.166667        0.185508
Al              0.833333        0.166667        0.185508
Al              0.333333        0.666667        0.185508
Al              0.833333        0.666667        0.185508
Al              0.166667        0.333333        0.314492
Al              0.666667        0.333333        0.314492
Al              0.166667        0.833333        0.314492
Al              0.666667        0.833333        0.314492
Al             -0.000000       -0.000000        0.352175
Al              0.500000       -0.000000        0.352175
Al             -0.000000        0.500000        0.352175
Al              0.500000        0.500000        0.352175
Al              0.333333        0.166667        0.481158
Al              0.833333        0.166667        0.481158
Al              0.333333        0.666667        0.481158
Al              0.833333        0.666667        0.481158
Al              0.166667        0.333333        0.518842
Al              0.666667        0.333333        0.518842
Al              0.166667        0.833333        0.518842
Al              0.666667        0.833333        0.518842
Al             -0.000000       -0.000000        0.647825
Al              0.500000       -0.000000        0.647825
Al             -0.000000        0.500000        0.647825
Al:1K              0.500000        0.500000        0.647825
Al              0.333333        0.166667        0.685508
Al              0.833333        0.166667        0.685508
Al              0.333333        0.666667        0.685508
Al              0.833333        0.666667        0.685508
Al              0.166667        0.333333        0.814492
Al              0.666667        0.333333        0.814492
Al              0.166667        0.833333        0.814492
Al              0.666667        0.833333        0.814492
Al             -0.000000       -0.000000        0.852175
Al              0.500000       -0.000000        0.852175
Al             -0.000000        0.500000        0.852175
Al              0.500000        0.500000        0.852175
Al              0.333333        0.166667        0.981158
Al              0.833333        0.166667        0.981158
Al              0.333333        0.666667        0.981158
Al              0.833333        0.666667        0.981158
%ENDBLOCK POSITIONS_FRAC

symmetry_generate
snap_to_symmetry
kpoints_mp_spacing : 0.03
bs_kpoints_mp_spacing : 0.03

%BLOCK SPECIES_POT
Al:1K 2|1.2|23|26|29|20U:21U:30:31(qc=8){1s1}
%ENDBLOCK SPECIES_POT
